








































































































8 26 50 48 29 45 13 1 
68 24 57 40 21 17 2 
74 7 67 0 43 47 55 53 
69 22 10 54 70 38 4 75 
15 59 49 62 32 61 65 
12 73 46 18 63 42 31 41 
64 5 20 36 30 6 44 58 
19 9 60 23 39 52 11 28 
16 25 27 66 72 71 3 
37 51 56 14 33 34 35 76 
